c SAT problem
p wcnf 595 2382
1 60 3165 0
1 75 3150 0
1 -75 60 0
1 -90 -3075 0
1 90 -3150 0
1 90 -91 0
1 -105 -3075 0
1 105 -3150 0
1 -105 -3060 0
1 105 3165 0
1 -3120 -165 0
1 -3120 75 0
1 -3120 -181 0
1 -3120 3135 0
1 3135 196 0
1 -3135 -75 0
1 3135 -3120 0
1 3135 -120 0
1 3150 -166 0
1 3150 -75 0
1 -3150 3151 0
1 -3150 -181 0
1 -3150 -121 0
1 3150 3165 0
1 -3165 -136 0
1 3165 3150 0
1 3165 -90 0
1 135 -136 0
1 135 -120 0
1 150 -3075 0
1 150 3045 0
1 150 -3015 0
1 150 3090 0
1 -150 -3060 0
1 -165 -3075 0
1 -165 3045 0
1 -165 166 0
1 -165 3060 0
1 165 3000 0
1 165 -3135 0
1 -3075 -3076 0
1 -3075 -165 0
1 3075 -135 0
1 -3075 -240 0
1 3075 -210 0
1 3075 255 0
1 -3090 3091 0
1 3090 -120 0
1 3105 -226 0
1 3105 -135 0
1 3105 105 0
1 -3105 181 0
1 -3105 -120 0
1 3105 255 0
1 -180 -195 0
1 -180 3075 0
1 180 -3045 0
1 -180 3015 0
1 -180 -181 0
1 -180 3000 0
1 195 3060 0
1 210 3000 0
1 225 3075 0
1 225 -3045 0
1 -3000 3015 0
1 3000 300 0
1 -3000 180 0
1 -3015 -165 0
1 3045 3030 0
1 -3045 -255 0
1 76 3300 0
1 -76 -61 0
1 91 -3330 0
1 -91 3285 0
1 91 -3255 0
1 -106 3300 0
1 106 3270 0
1 106 3240 0
1 106 -105 0
1 -106 -3315 0
1 -106 91 0
1 3300 166 0
1 -3300 -136 0
1 3300 3315 0
1 3315 3316 0
1 3330 167 0
1 3330 -76 0
1 -3345 3330 0
1 -3345 -137 0
1 -3345 76 0
1 3345 -152 0
1 -121 -3300 0
1 121 3270 0
1 121 136 0
1 -121 3240 0
1 121 -3285 0
1 -121 3255 0
1 136 -3300 0
1 136 -3255 0
1 136 121 0
1 -136 -3165 0
1 151 3240 0
1 -151 -3285 0
1 151 -150 0
1 151 -152 0
1 -166 167 0
1 166 3150 0
1 -166 3285 0
1 166 -3165 0
1 -3240 -166 0
1 3240 136 0
1 3240 -3241 0
1 3240 106 0
1 3240 -211 0
1 -3240 -181 0
1 -3255 136 0
1 3255 -3240 0
1 3255 -241 0
1 3255 -121 0
1 -3255 91 0
1 3270 197 0
1 -3270 212 0
1 3270 -3285 0
1 -3270 -151 0
1 3285 241 0
1 3285 121 0
1 181 -196 0
1 -181 -3150 0
1 181 180 0
1 -181 3255 0
1 -181 -3165 0
1 181 -3135 0
1 196 197 0
1 -211 226 0
1 211 3166 0
1 226 225 0
1 -226 3151 0
1 -226 -3121 0
1 226 -3090 0
1 3180 -196 0
1 -3180 166 0
1 -3180 -301 0
1 -3180 -3195 0
1 -3195 270 0
1 -3195 -240 0
1 -3210 271 0
1 -3210 241 0
1 3210 -316 0
1 -3210 -286 0
1 3225 -226 0
1 -3225 -286 0
1 -240 3136 0
1 240 -3105 0
1 -240 -3151 0
1 -240 -241 0
1 -240 -3121 0
1 240 -255 0
1 -255 3136 0
1 -255 -3045 0
1 255 3030 0
1 255 3195 0
1 270 3106 0
1 -270 3076 0
1 -270 3045 0
1 270 -3180 0
1 270 3061 0
1 -285 -270 0
1 285 -3151 0
1 285 3121 0
1 285 -3061 0
1 -3121 -3136 0
1 -3121 -270 0
1 3121 240 0
1 3136 3137 0
1 3136 240 0
1 -3136 3121 0
1 -3136 -255 0
1 3151 361 0
1 -3151 -301 0
1 -3151 -240 0
1 3151 3152 0
1 -3151 211 0
1 3151 -376 0
1 3151 -255 0
1 -3166 -361 0
1 -3166 -301 0
1 3166 -3151 0
1 -3166 -3165 0
1 -3166 -346 0
1 3166 285 0
1 3166 3167 0
1 300 3136 0
1 300 3106 0
1 -300 -3121 0
1 -300 -3091 0
1 -300 -315 0
1 315 3015 0
1 315 3061 0
1 -315 316 0
1 330 -3046 0
1 -345 3136 0
1 -345 -3076 0
1 345 -3016 0
1 345 -3091 0
1 -345 3031 0
1 3061 -390 0
1 -3061 435 0
1 -3061 405 0
1 -3061 -3062 0
1 3061 345 0
1 -3061 315 0
1 3061 -285 0
1 3076 3075 0
1 -3076 -390 0
1 -3076 360 0
1 3076 300 0
1 3076 405 0
1 -3076 3061 0
1 -3076 315 0
1 -3091 420 0
1 3091 300 0
1 -3091 435 0
1 -3091 3092 0
1 3091 -406 0
1 -3091 -285 0
1 -3106 330 0
1 -3106 -300 0
1 -3106 -270 0
1 -3106 435 0
1 -3106 406 0
1 -375 3031 0
1 -375 -3001 0
1 -390 391 0
1 390 -405 0
1 -390 -3031 0
1 -3001 -495 0
1 -3001 -405 0
1 -3001 -375 0
1 3001 -3002 0
1 3016 -480 0
1 -3016 -390 0
1 3016 -3015 0
1 -3016 495 0
1 -3016 405 0
1 3031 -450 0
1 3031 -3046 0
1 3031 345 0
1 3046 3047 0
1 -3046 360 0
1 -3046 495 0
1 3046 435 0
1 -3046 405 0
1 3046 345 0
1 -62 -3525 0
1 62 3495 0
1 77 -3495 0
1 77 -76 0
1 92 -107 0
1 107 3525 0
1 -107 -106 0
1 -107 -3435 0
1 -107 -3510 0
1 -107 3480 0
1 107 -92 0
1 -3480 198 0
1 3480 -3495 0
1 -3480 -137 0
1 3480 107 0
1 3480 77 0
1 3480 -3481 0
1 3480 62 0
1 3495 3480 0
1 -3495 167 0
1 -3495 137 0
1 -3495 77 0
1 3495 152 0
1 -3510 3525 0
1 3510 138 0
1 3525 198 0
1 -3525 168 0
1 -122 -3465 0
1 -122 3435 0
1 122 3480 0
1 -122 3450 0
1 137 3495 0
1 -137 138 0
1 137 3435 0
1 152 3330 0
1 -152 -3495 0
1 152 3465 0
1 152 -151 0
1 -152 3450 0
1 -152 3420 0
1 -167 3360 0
1 167 3345 0
1 -167 -3390 0
1 -3420 167 0
1 3420 242 0
1 3420 122 0
1 3420 92 0
1 -3435 137 0
1 3435 107 0
1 3435 -92 0
1 -3450 -257 0
1 -3450 122 0
1 -3450 3451 0
1 -3450 92 0
1 3465 228 0
1 3465 -137 0
1 -3465 -3466 0
1 3465 107 0
1 3465 183 0
1 -3465 -152 0
1 -3465 92 0
1 -182 3330 0
1 -182 197 0
1 182 -183 0
1 -197 3300 0
1 -197 3375 0
1 -197 3315 0
1 197 182 0
1 212 -3270 0
1 212 3405 0
1 212 3375 0
1 -212 3316 0
1 -212 213 0
1 227 226 0
1 227 -3331 0
1 227 -3405 0
1 227 3375 0
1 -227 -3316 0
1 3360 271 0
1 -3360 152 0
1 -3360 -286 0
1 3375 -256 0
1 3375 -271 0
1 3375 152 0
1 -3390 -302 0
1 3390 -272 0
1 3390 242 0
1 -3390 -212 0
1 3390 -152 0
1 -3405 -257 0
1 3405 -197 0
1 3405 302 0
1 3405 3406 0
1 -3405 -182 0
1 241 3240 0
1 241 -3210 0
1 241 240 0
1 241 242 0
1 -241 3346 0
1 241 3225 0
1 -256 -3360 0
1 -256 3240 0
1 -256 3210 0
1 -256 -3316 0
1 256 -3225 0
1 271 3360 0
1 271 3331 0
1 -271 3271 0
1 271 272 0
1 -271 3346 0
1 286 3375 0
1 -286 -3346 0
1 -286 -3286 0
1 3301 -3302 0
1 3301 331 0
1 3301 241 0
1 -3301 -346 0
1 3301 316 0
1 -3316 -331 0
1 3316 -301 0
1 3316 241 0
1 -3316 -316 0
1 -3316 -286 0
1 -3331 -227 0
1 -3331 332 0
1 3331 -271 0
1 -3331 -347 0
1 3346 256 0
1 -3346 3331 0
1 -3346 241 0
1 3346 3345 0
1 3346 286 0
1 301 -3241 0
1 301 -302 0
1 301 -3225 0
1 -301 3195 0
1 301 -316 0
1 -316 3241 0
1 316 -3210 0
1 -316 -301 0
1 -316 3151 0
1 316 3286 0
1 331 -3301 0
1 -331 3181 0
1 -331 -3286 0
1 -331 -3166 0
1 -346 3301 0
1 346 331 0
1 346 3181 0
1 -346 3151 0
1 346 3286 0
1 -346 -3256 0
1 -346 3226 0
1 -346 347 0
1 3241 -361 0
1 3241 -3242 0
1 -3241 -406 0
1 -3256 331 0
1 3256 436 0
1 -3256 -406 0
1 -3271 -392 0
1 -3271 -436 0
1 -3271 -3286 0
1 -3286 -407 0
1 3286 -316 0
1 361 -3256 0
1 361 3226 0
1 376 -375 0
1 376 3226 0
1 -391 3241 0
1 -391 3181 0
1 -391 3122 0
1 -391 -3091 0
1 -391 3226 0
1 406 3137 0
1 406 3211 0
1 -406 3181 0
1 -406 3122 0
1 -406 -3196 0
1 406 -3167 0
1 -3181 450 0
1 3181 420 0
1 -3181 -465 0
1 -3181 435 0
1 3181 -376 0
1 3181 -3196 0
1 3196 420 0
1 3196 -391 0
1 3196 361 0
1 3196 3195 0
1 -3211 451 0
1 -3211 -3210 0
1 3211 436 0
1 3226 -451 0
1 -3226 -421 0
1 -3226 -391 0
1 -3226 -3211 0
1 -3226 496 0
1 3226 436 0
1 -3226 406 0
1 -3226 -3225 0
1 3226 -346 0
1 3226 -3227 0
1 420 3106 0
1 -420 3076 0
1 -420 -421 0
1 -420 -3046 0
1 -420 -3091 0
1 -420 -3061 0
1 -420 -3031 0
1 -435 -3076 0
1 435 3031 0
1 450 -451 0
1 450 465 0
1 -450 -3122 0
1 450 3031 0
1 450 -3167 0
1 -465 -3077 0
1 -465 3046 0
1 465 -3181 0
1 465 -3152 0
1 -465 466 0
1 -465 -3092 0
1 -465 -3196 0
1 3122 -525 0
1 -3122 495 0
1 3122 -465 0
1 -3122 -3121 0
1 3122 406 0
1 3122 510 0
1 3137 420 0
1 3137 -391 0
1 -3137 556 0
1 3137 525 0
1 3137 541 0
1 3137 -510 0
1 3152 -481 0
1 -3152 450 0
1 3152 420 0
1 -3152 -391 0
1 -3152 -3151 0
1 3152 3167 0
1 3152 -511 0
1 3167 -3168 0
1 3167 -481 0
1 -3167 450 0
1 3167 420 0
1 3167 -556 0
1 -3167 3152 0
1 3167 -406 0
1 -3167 -511 0
1 -480 -3092 0
1 480 -3062 0
1 -480 -3031 0
1 -495 3137 0
1 495 -3077 0
1 -495 3092 0
1 -495 -3031 0
1 510 -3137 0
1 -510 525 0
1 510 3122 0
1 510 -3092 0
1 510 -3062 0
1 525 510 0
1 -3062 -3077 0
1 -3062 525 0
1 -3062 465 0
1 3062 3061 0
1 -3077 480 0
1 -3077 -3078 0
1 -3077 615 0
1 -3077 525 0
1 -3077 -465 0
1 -3077 -540 0
1 -3077 510 0
1 3092 480 0
1 3092 -450 0
1 3092 556 0
1 3092 -541 0
1 3092 -510 0
1 3107 -556 0
1 3107 -495 0
1 3107 465 0
1 -3107 541 0
1 -3107 -510 0
1 -540 -3077 0
1 540 3047 0
1 540 3032 0
1 555 3032 0
1 -555 540 0
1 570 585 0
1 585 3032 0
1 -3002 3017 0
1 3002 -525 0
1 3002 -3001 0
1 3017 -3002 0
1 3017 675 0
1 3017 585 0
1 3017 -525 0
1 3017 -510 0
1 3032 -615 0
1 3032 3047 0
1 -3032 525 0
1 3032 -3033 0
1 3047 645 0
1 -3047 3046 0
1 3047 -525 0
1 3047 -570 0
1 63 -64 0
1 -63 -3675 0
1 63 -62 0
1 -78 -77 0
1 -93 -3690 0
1 93 3675 0
1 -93 -94 0
1 -108 3645 0
1 -108 109 0
1 108 3630 0
1 108 -3675 0
1 3660 168 0
1 3660 -3661 0
1 3660 153 0
1 3660 3675 0
1 -3660 -123 0
1 -3660 -93 0
1 -3660 -63 0
1 3675 -168 0
1 -3675 138 0
1 3675 -108 0
1 -3675 3660 0
1 3675 -153 0
1 3690 -184 0
1 3705 169 0
1 -3705 3690 0
1 -3705 108 0
1 -3705 78 0
1 3705 -3706 0
1 3705 -63 0
1 -123 3600 0
1 -123 -3615 0
1 -138 137 0
1 138 3660 0
1 138 3630 0
1 -138 -123 0
1 138 -3645 0
1 -153 -3585 0
1 -153 3660 0
1 153 3600 0
1 -153 -154 0
1 -168 -3525 0
1 168 -167 0
1 -168 -3660 0
1 168 3540 0
1 -168 3510 0
1 -168 3645 0
1 -168 -3615 0
1 3600 3601 0
1 3600 -243 0
1 3600 183 0
1 3600 -153 0
1 -3615 -168 0
1 -3615 -243 0
1 3615 -183 0
1 3615 93 0
1 3630 199 0
1 3630 -138 0
1 -3630 108 0
1 3630 -3631 0
1 -3630 243 0
1 -3630 123 0
1 3645 -199 0
1 3645 -108 0
1 3645 3630 0
1 3645 153 0
1 3645 123 0
1 3645 3646 0
1 183 -3585 0
1 -183 198 0
1 183 3495 0
1 183 -182 0
1 -198 -197 0
1 198 -199 0
1 198 -3465 0
1 198 3450 0
1 213 -228 0
1 -213 -3526 0
1 213 3600 0
1 -213 -3540 0
1 213 214 0
1 -213 -3450 0
1 -228 3555 0
1 228 -229 0
1 -228 3540 0
1 -228 3450 0
1 3540 257 0
1 3540 228 0
1 3540 -168 0
1 3540 -183 0
1 -3540 318 0
1 3540 -287 0
1 3555 -198 0
1 -3570 288 0
1 3570 -228 0
1 -3570 -168 0
1 3570 -243 0
1 -3570 3571 0
1 3570 -183 0
1 3585 -288 0
1 -3585 258 0
1 -3585 3586 0
1 -242 257 0
1 242 -3555 0
1 -242 3526 0
1 242 -3465 0
1 242 3435 0
1 -242 -241 0
1 -242 3511 0
1 257 256 0
1 -257 3390 0
1 272 -3526 0
1 272 3436 0
1 -272 -271 0
1 272 3540 0
1 272 3451 0
1 272 287 0
1 -287 3526 0
1 -287 3511 0
1 -3481 -3496 0
1 -3481 -272 0
1 3496 -228 0
1 3496 332 0
1 3496 242 0
1 3496 213 0
1 -3496 -3481 0
1 -3511 257 0
1 3511 -228 0
1 -3511 -3526 0
1 3511 333 0
1 3526 -3525 0
1 3526 303 0
1 3526 242 0
1 3526 -213 0
1 3526 378 0
1 -3526 -287 0
1 302 -3360 0
1 302 -3405 0
1 -317 3481 0
1 317 -318 0
1 -332 -3406 0
1 -332 -3346 0
1 332 -347 0
1 -332 -3391 0
1 -347 -3331 0
1 -347 332 0
1 347 -3346 0
1 347 3481 0
1 -347 3391 0
1 -3421 -392 0
1 3421 -362 0
1 3421 3436 0
1 -3421 302 0
1 -3421 272 0
1 -3421 -347 0
1 3421 -3422 0
1 -3436 362 0
1 3436 -3437 0
1 -3436 272 0
1 3436 -407 0
1 3436 -377 0
1 -3451 3466 0
1 -3451 -363 0
1 -3451 -302 0
1 -3451 -3450 0
1 3451 3452 0
1 3451 -317 0
1 3466 -3467 0
1 3466 -378 0
1 3466 -317 0
1 362 361 0
1 362 363 0
1 362 3346 0
1 -377 -3271 0
1 -377 3436 0
1 377 -3406 0
1 -377 3346 0
1 377 3286 0
1 -377 376 0
1 377 378 0
1 -392 3332 0
1 392 -3302 0
1 -392 3271 0
1 -392 393 0
1 -392 -3421 0
1 407 -3361 0
1 3361 482 0
1 3361 451 0
1 3361 -3362 0
1 -3361 -421 0
1 3361 3376 0
1 3361 -436 0
1 3376 482 0
1 -3376 451 0
1 3376 392 0
1 -3376 -466 0
1 -3376 -436 0
1 -3376 347 0
1 -3391 -3392 0
1 3391 -437 0
1 -3391 -407 0
1 -3406 452 0
1 3406 332 0
1 -3406 407 0
1 -421 3271 0
1 -421 -3302 0
1 -421 -3347 0
1 -421 -3256 0
1 -421 -3226 0
1 436 3332 0
1 436 3256 0
1 -436 3226 0
1 451 -452 0
1 -451 3302 0
1 451 -3272 0
1 -451 -3242 0
1 -451 -466 0
1 -466 -451 0
1 -466 3242 0
1 -466 -3211 0
1 -466 -3376 0
1 466 3287 0
1 -3302 -3303 0
1 3302 -407 0
1 -3317 392 0
1 3317 526 0
1 -3317 3318 0
1 -3332 3331 0
1 -3332 -3333 0
1 -3332 -466 0
1 3347 -512 0
1 -3347 -392 0
1 -3347 527 0
1 3347 -497 0
1 -3347 407 0
1 -481 -3317 0
1 481 3167 0
1 496 -3302 0
1 -496 -3272 0
1 496 -495 0
1 496 -3152 0
1 511 -3212 0
1 -511 3317 0
1 -511 -3197 0
1 -511 -3167 0
1 526 -525 0
1 -526 -3197 0
1 -526 3167 0
1 -3242 -466 0
1 -3242 -511 0
1 3257 -556 0
1 -3257 -526 0
1 -3257 466 0
1 -3257 -601 0
1 -3272 -3273 0
1 -3272 -557 0
1 -3272 -572 0
1 -3287 -451 0
1 -3287 616 0
1 3287 -557 0
1 3287 -496 0
1 -3287 -3286 0
1 -3287 -601 0
1 3287 572 0
1 -541 3137 0
1 541 3107 0
1 541 -556 0
1 541 3167 0
1 -556 -3242 0
1 -556 557 0
1 556 3227 0
1 -571 -3168 0
1 571 3107 0
1 571 3212 0
1 -571 3182 0
1 -571 3153 0
1 571 3257 0
1 -571 570 0
1 571 -3227 0
1 571 -572 0
1 -586 -585 0
1 586 3242 0
1 -586 587 0
1 -586 3153 0
1 586 -3257 0
1 -586 3197 0
1 3182 -676 0
1 -3182 -615 0
1 3182 -3181 0
1 3182 -661 0
1 -3182 -3197 0
1 -3182 600 0
1 -3197 -676 0
1 3197 645 0
1 3197 -526 0
1 -3197 -630 0
1 -3197 600 0
1 3197 3196 0
1 -3212 3211 0
1 3212 556 0
1 3212 -526 0
1 -3212 -601 0
1 3212 -571 0
1 3212 -541 0
1 -3227 -556 0
1 -3227 661 0
1 -3227 -601 0
1 3227 3226 0
1 -3227 541 0
1 -600 -3138 0
1 600 3107 0
1 600 -3047 0
1 600 -3197 0
1 615 3107 0
1 -615 -600 0
1 630 3168 0
1 -630 -631 0
1 630 3063 0
1 -630 3032 0
1 -645 -3168 0
1 645 -3138 0
1 -645 3063 0
1 -3123 705 0
1 -3123 3138 0
1 -3123 675 0
1 -3138 675 0
1 -3138 615 0
1 -3138 3123 0
1 -3138 -630 0
1 -3153 -615 0
1 3153 -691 0
1 -3153 571 0
1 -3168 -736 0
1 -3168 3169 0
1 -3168 -676 0
1 -3168 -645 0
1 -3168 -586 0
1 -3168 3153 0
1 3168 3167 0
1 -660 -3047 0
1 675 3017 0
1 -675 3123 0
1 -675 -660 0
1 -675 -3032 0
1 -690 -3108 0
1 -690 -3078 0
1 -690 691 0
1 -690 -3123 0
1 690 -3063 0
1 705 -3138 0
1 -705 690 0
1 -705 3093 0
1 3063 645 0
1 3063 3078 0
1 -3078 -660 0
1 -3078 -630 0
1 3078 -765 0
1 3093 3108 0
1 3093 721 0
1 3093 -690 0
1 -3093 795 0
1 3108 660 0
1 720 3003 0
1 735 -3063 0
1 -735 -3003 0
1 -750 -3078 0
1 750 3018 0
1 -750 -3033 0
1 765 3078 0
1 765 3003 0
1 -765 766 0
1 -3003 -705 0
1 -3003 3018 0
1 -3003 720 0
1 -3003 -855 0
1 -3003 -735 0
1 3018 -855 0
1 -3018 735 0
1 -3033 -3034 0
1 3033 735 0
1 -3048 810 0
1 3048 -780 0
1 -3048 750 0
1 -3048 855 0
1 3048 825 0
1 -3048 -3033 0
1 3048 735 0
1 64 3885 0
1 -94 3840 0
1 94 109 0
1 -94 -3795 0
1 94 3870 0
1 -109 -94 0
1 3840 124 0
1 3840 94 0
1 -3855 64 0
1 -3855 3856 0
1 3855 -94 0
1 3885 -64 0
1 3885 -109 0
1 -3885 94 0
1 -124 3795 0
1 -124 -3705 0
1 -124 123 0
1 -139 3810 0
1 -139 3690 0
1 139 3825 0
1 -139 3795 0
1 154 -3720 0
1 154 169 0
1 -154 -3855 0
1 -154 3705 0
1 -169 -3780 0
1 -169 3720 0
1 169 3855 0
1 -169 3735 0
1 169 -3705 0
1 3780 229 0
1 3780 199 0
1 -3780 -169 0
1 -3780 -109 0
1 -3795 229 0
1 3795 -139 0
1 -3795 -244 0
1 -3795 184 0
1 3810 -139 0
1 3810 244 0
1 -3810 -154 0
1 3810 -94 0
1 3825 -3810 0
1 -3825 3826 0
1 184 -3630 0
1 184 -3795 0
1 -184 3645 0
1 199 -3780 0
1 -199 3720 0
1 -199 -3675 0
1 214 3735 0
1 -214 -3630 0
1 214 3795 0
1 -214 3706 0
1 229 -214 0
1 229 3706 0
1 -229 -3676 0
1 -3720 288 0
1 -3720 229 0
1 -3720 -169 0
1 3720 319 0
1 -3735 -243 0
1 -3735 -154 0
1 -3765 259 0
1 -3765 -3750 0
1 3765 -304 0
1 -3765 244 0
1 3765 -214 0
1 -3765 154 0
1 -3765 319 0
1 243 -258 0
1 -243 3691 0
1 258 259 0
1 -258 3720 0
1 258 -3630 0
1 258 -3570 0
1 -258 3676 0
1 -273 3616 0
1 -273 274 0
1 -273 -3570 0
1 -273 3706 0
1 288 -289 0
1 288 3676 0
1 -3661 229 0
1 -3661 3662 0
1 3661 -273 0
1 -3661 379 0
1 3661 -3676 0
1 3676 364 0
1 3676 3661 0
1 3676 -303 0
1 -3676 273 0
1 3676 214 0
1 3676 -3675 0
1 3676 379 0
1 3691 3690 0
1 3691 -334 0
1 3691 243 0
1 3691 379 0
1 -3691 349 0
1 -3706 -214 0
1 -3706 -3705 0
1 -303 -3555 0
1 -303 -302 0
1 303 -3631 0
1 303 304 0
1 -303 -3601 0
1 303 3570 0
1 -303 3540 0
1 -303 3676 0
1 318 3585 0
1 318 -3555 0
1 -318 -303 0
1 318 -3601 0
1 318 3511 0
1 -333 -3586 0
1 333 3556 0
1 333 -3526 0
1 333 332 0
1 333 3571 0
1 333 3511 0
1 -333 3646 0
1 348 -3586 0
1 348 -3556 0
1 -348 3661 0
1 348 -3601 0
1 -348 3511 0
1 348 -3676 0
1 -348 349 0
1 348 -3646 0
1 3601 -288 0
1 -3601 -3616 0
1 -3601 -333 0
1 3601 3600 0
1 -3601 -273 0
1 -3601 -408 0
1 3601 -348 0
1 -3601 318 0
1 -3616 288 0
1 -3616 -438 0
1 3631 3630 0
1 3631 -303 0
1 -3631 -438 0
1 -3646 -423 0
1 3646 394 0
1 -3646 -318 0
1 -363 3616 0
1 -363 3571 0
1 -363 -3511 0
1 -363 378 0
1 363 3451 0
1 378 -3616 0
1 -378 3526 0
1 378 -3466 0
1 378 -363 0
1 -378 -3601 0
1 378 3511 0
1 -378 -377 0
1 -393 3616 0
1 393 -3527 0
1 393 -3466 0
1 -393 -3541 0
1 393 408 0
1 -408 -3556 0
1 408 3527 0
1 408 -393 0
1 408 3512 0
1 408 409 0
1 -408 -3482 0
1 -408 3451 0
1 -3541 -483 0
1 -3541 3556 0
1 3541 3540 0
1 -3541 -378 0
1 3556 452 0
1 3556 467 0
1 3571 3586 0
1 -3571 483 0
1 3571 -453 0
1 -3571 -3570 0
1 -3571 408 0
1 3571 -378 0
1 3586 -393 0
1 -3586 498 0
1 -3586 348 0
1 422 423 0
1 422 3527 0
1 -422 -437 0
1 -422 3541 0
1 -437 -422 0
1 437 3406 0
1 437 3512 0
1 437 3451 0
1 437 3391 0
1 -452 3497 0
1 452 -3541 0
1 452 -3512 0
1 -452 -3422 0
1 452 3391 0
1 -467 3482 0
1 3482 422 0
1 -3482 -3497 0
1 -3497 512 0
1 3497 -422 0
1 3497 -558 0
1 3497 -467 0
1 3497 408 0
1 3497 -543 0
1 3512 3513 0
1 3527 -483 0
1 3527 -422 0
1 -3527 -558 0
1 3527 -467 0
1 -482 -3361 0
1 -482 483 0
1 -497 -482 0
1 -497 3332 0
1 497 -3482 0
1 -512 3497 0
1 -512 3437 0
1 512 3377 0
1 512 -3347 0
1 512 -3482 0
1 -512 3422 0
1 527 -3332 0
1 527 -3437 0
1 527 526 0
1 -527 3407 0
1 527 -3377 0
1 -3422 482 0
1 -3422 452 0
1 -3437 -512 0
1 -3437 497 0
1 3437 572 0
1 -3452 -512 0
1 3452 617 0
1 3452 -588 0
1 -3452 -543 0
1 -3467 3466 0
1 -3467 -3468 0
1 3467 497 0
1 3467 467 0
1 3467 543 0
1 557 -3272 0
1 557 558 0
1 557 3347 0
1 572 -3362 0
1 572 -3272 0
1 572 -3437 0
1 572 3377 0
1 572 -3318 0
1 572 3287 0
1 -587 3318 0
1 587 572 0
1 587 -3422 0
1 -3362 -3363 0
1 3362 646 0
1 3362 587 0
1 3362 -601 0
1 3362 -572 0
1 -3377 -512 0
1 -3377 587 0
1 -3377 -527 0
1 3392 -512 0
1 3392 677 0
1 -3392 617 0
1 -3392 -587 0
1 3392 -557 0
1 -3392 -527 0
1 3392 -3407 0
1 -3407 -512 0
1 3407 617 0
1 -3407 -557 0
1 -3407 3408 0
1 -3407 -632 0
1 601 -3377 0
1 -601 600 0
1 616 3212 0
1 -616 3377 0
1 631 -3362 0
1 631 3333 0
1 -631 3303 0
1 -631 -3212 0
1 631 3377 0
1 -631 3318 0
1 631 -632 0
1 -631 3258 0
1 631 3288 0
1 646 -3273 0
1 -646 -3243 0
1 -646 3212 0
1 -646 -3348 0
1 646 3288 0
1 3303 -3302 0
1 3303 691 0
1 -3303 661 0
1 3318 -706 0
1 3318 -587 0
1 3318 -722 0
1 3318 3317 0
1 -3333 -616 0
1 3333 631 0
1 3348 3333 0
1 -3348 -3349 0
1 -661 3303 0
1 -661 -3182 0
1 661 -662 0
1 -676 -3168 0
1 676 -675 0
1 -676 3303 0
1 -676 3273 0
1 -676 3243 0
1 676 -661 0
1 -676 3318 0
1 676 3288 0
1 676 -3258 0
1 676 -3227 0
1 691 3168 0
1 691 3303 0
1 -691 -3273 0
1 691 -3183 0
1 691 -3153 0
1 -691 -3258 0
1 -706 -3303 0
1 -706 -3243 0
1 706 3213 0
1 706 3228 0
1 3243 3244 0
1 -3243 -781 0
1 3243 721 0
1 -3243 -691 0
1 -3258 -676 0
1 -3258 -646 0
1 3258 721 0
1 -3258 -691 0
1 -3258 631 0
1 -3258 3257 0
1 3258 766 0
1 3273 737 0
1 3273 676 0
1 -3273 646 0
1 3273 722 0
1 -3273 -691 0
1 3273 661 0
1 3288 -737 0
1 -3288 646 0
1 -3288 -661 0
1 -3288 -3289 0
1 721 -3138 0
1 721 -3213 0
1 -721 720 0
1 -721 3153 0
1 -736 3258 0
1 736 -735 0
1 751 3169 0
1 -751 3108 0
1 -751 -3258 0
1 -751 -750 0
1 -751 -3093 0
1 -751 -3228 0
1 766 -3169 0
1 -766 3108 0
1 -766 -3243 0
1 766 751 0
1 766 3228 0
1 3183 -751 0
1 -3183 -3184 0
1 -3183 856 0
1 -3183 -825 0
1 3183 -3198 0
1 -3183 -795 0
1 -3198 -841 0
1 3198 -721 0
1 -3198 -691 0
1 -3198 856 0
1 -3198 3199 0
1 3213 -781 0
1 -3213 -721 0
1 -3228 736 0
1 3228 706 0
1 -3228 841 0
1 -3228 -811 0
1 3228 781 0
1 3228 721 0
1 -3228 691 0
1 -3228 -856 0
1 -3228 3227 0
1 -3228 766 0
1 780 -3169 0
1 780 3124 0
1 -795 3169 0
1 795 -3139 0
1 795 -3078 0
1 -795 -3048 0
1 795 3093 0
1 -795 -3198 0
1 -810 3124 0
1 825 3139 0
1 -825 -826 0
1 825 3198 0
1 3124 901 0
1 -3124 -810 0
1 3124 855 0
1 -3124 766 0
1 -3139 840 0
1 -3139 -810 0
1 3139 -751 0
1 -3139 916 0
1 -3139 855 0
1 3139 -825 0
1 -3139 -795 0
1 3154 -901 0
1 3154 -3153 0
1 -3154 -795 0
1 840 3048 0
1 -840 841 0
1 -840 3018 0
1 840 -3094 0
1 855 3109 0
1 -855 -840 0
1 -855 -3018 0
1 -855 -3094 0
1 -855 -3033 0
1 -870 -3079 0
1 -870 885 0
1 870 3004 0
1 885 -3139 0
1 -885 3049 0
1 -885 3094 0
1 885 3034 0
1 885 -3004 0
1 3079 -855 0
1 3079 -825 0
1 -3094 810 0
1 3094 855 0
1 -3094 -825 0
1 3109 931 0
1 3109 870 0
1 3109 -840 0
1 3109 -810 0
1 3109 3094 0
1 -3109 855 0
1 -900 3079 0
1 -900 -3019 0
1 -900 3034 0
1 -915 -3019 0
1 -915 3004 0
1 -930 -931 0
1 930 3019 0
1 930 -945 0
1 930 3004 0
1 -945 946 0
1 -3004 930 0
1 -3004 -885 0
1 3019 900 0
1 3019 3004 0
1 -3019 -915 0
1 3034 930 0
1 3034 900 0
1 -3034 -870 0
1 -3049 -900 0
1 -3049 -870 0
1 -3049 -885 0
1 -244 -3750 0
1 244 3886 0
1 244 -3825 0
1 -244 -3871 0
1 -259 -3810 0
1 259 -3750 0
1 259 -3825 0
1 259 3795 0
1 -259 3871 0
1 -274 -273 0
1 274 3871 0
1 -289 -3796 0
1 -289 3765 0
1 3841 289 0
1 3841 334 0
1 -3841 3856 0
1 -3841 244 0
1 -3856 -289 0
1 -3856 3841 0
1 3856 259 0
1 -3856 -3855 0
1 3886 259 0
1 -3886 -3885 0
1 3886 244 0
1 304 3826 0
1 -304 3765 0
1 304 -3735 0
1 304 -319 0
1 319 3841 0
1 319 304 0
1 319 -3856 0
1 -319 -3826 0
1 334 -3811 0
1 -334 -333 0
1 334 3856 0
1 -334 -3706 0
1 349 3841 0
1 -349 3811 0
1 -349 -334 0
1 -3781 -289 0
1 -3781 334 0
1 -3781 -274 0
1 3781 -3796 0
1 -3781 409 0
1 -3781 379 0
1 -3781 349 0
1 -3796 -394 0
1 -3796 334 0
1 -3796 274 0
1 -3796 -3795 0
1 -3811 319 0
1 3826 289 0
1 -3826 3811 0
1 3826 334 0
1 3826 -304 0
1 364 3781 0
1 -364 3751 0
1 -364 379 0
1 -379 3751 0
1 -379 3691 0
1 379 -364 0
1 -379 3631 0
1 379 -3796 0
1 -379 -3676 0
1 394 3631 0
1 -394 -3796 0
1 394 3766 0
1 394 -3736 0
1 -394 -409 0
1 394 3707 0
1 394 3677 0
1 -409 -3721 0
1 409 -3736 0
1 -409 3662 0
1 -409 -3631 0
1 -3721 3720 0
1 -3721 -394 0
1 -3721 364 0
1 -3721 -499 0
1 3721 468 0
1 3721 -409 0
1 -3736 484 0
1 -3736 -334 0
1 -3736 -499 0
1 -3736 379 0
1 3751 424 0
1 3751 -499 0
1 3751 -469 0
1 3766 484 0
1 3766 -454 0
1 3766 424 0
1 -3766 349 0
1 -423 -3586 0
1 423 3631 0
1 -423 -3571 0
1 423 3736 0
1 -453 454 0
1 -453 -3662 0
1 -453 3632 0
1 453 3571 0
1 468 3617 0
1 -468 3692 0
1 -468 467 0
1 -468 -3707 0
1 468 -3647 0
1 3662 483 0
1 3662 3661 0
1 3662 438 0
1 3662 -409 0
1 3662 -3677 0
1 3677 513 0
1 3677 -453 0
1 3677 423 0
1 3677 -394 0
1 3677 3662 0
1 -3677 -528 0
1 -3677 468 0
1 -3677 409 0
1 3677 3676 0
1 3677 3678 0
1 3692 484 0
1 3692 -3691 0
1 3692 -3693 0
1 -3692 -438 0
1 3707 -544 0
1 3707 514 0
1 3707 -453 0
1 3707 3692 0
1 3707 -499 0
1 -3707 -468 0
1 483 3556 0
1 483 -3527 0
1 -483 3662 0
1 -483 -498 0
1 483 -3541 0
1 483 -3512 0
1 498 3617 0
1 498 483 0
1 -498 -3556 0
1 -498 3527 0
1 498 -3632 0
1 -498 499 0
1 -498 3571 0
1 -498 3512 0
1 498 3647 0
1 513 528 0
1 -513 -3542 0
1 -513 3647 0
1 528 -3527 0
1 -528 527 0
1 -528 -3542 0
1 528 -3512 0
1 3602 558 0
1 3602 -528 0
1 3602 468 0
1 -3602 -573 0
1 3602 -543 0
1 3617 3618 0
1 -3617 -483 0
1 3617 -573 0
1 -3632 -589 0
1 3632 528 0
1 3632 -3631 0
1 3632 -498 0
1 -3632 603 0
1 -3632 574 0
1 -3647 -3648 0
1 3647 618 0
1 -3647 3632 0
1 3647 468 0
1 3647 -574 0
1 543 -3557 0
1 543 3527 0
1 543 -558 0
1 543 -3572 0
1 558 3617 0
1 -558 3557 0
1 558 -3602 0
1 -558 3572 0
1 -558 -3512 0
1 558 -3452 0
1 -558 543 0
1 573 -3467 0
1 -573 3542 0
1 573 3513 0
1 573 -3483 0
1 -573 3452 0
1 573 572 0
1 588 3602 0
1 -3542 3541 0
1 3542 -602 0
1 -3557 3556 0
1 -3557 -678 0
1 3557 -3558 0
1 -3557 528 0
1 3557 -663 0
1 3572 -3587 0
1 3572 678 0
1 -3572 -618 0
1 3572 558 0
1 -3587 -3586 0
1 -3587 678 0
1 3587 558 0
1 -3587 528 0
1 3587 3572 0
1 3587 543 0
1 602 3498 0
1 -602 3422 0
1 -617 -618 0
1 617 3498 0
1 -617 3407 0
1 617 -3542 0
1 617 3513 0
1 -617 3483 0
1 -617 3422 0
1 632 -3528 0
1 -647 -648 0
1 -647 3468 0
1 647 -3542 0
1 647 3483 0
1 -3483 707 0
1 3483 3482 0
1 -3483 -632 0
1 -3483 -3484 0
1 -3498 -617 0
1 -3498 3497 0
1 3498 -3499 0
1 3498 588 0
1 3513 708 0
1 3513 -588 0
1 3513 -3514 0
1 3513 -632 0
1 -3513 602 0
1 3528 -617 0
1 3528 -693 0
1 3528 -663 0
1 -3528 602 0
1 -662 3392 0
1 662 -677 0
1 662 3498 0
1 -662 -3438 0
1 662 -3483 0
1 -662 -3453 0
1 -662 3423 0
1 -677 676 0
1 -677 3498 0
1 -677 3377 0
1 -677 -662 0
1 -677 3453 0
1 -677 -3423 0
1 -692 3393 0
1 692 -707 0
1 692 3498 0
1 692 -3468 0
1 -692 -3408 0
1 692 -3348 0
1 -692 -3483 0
1 707 -3498 0
1 -707 -3348 0
1 -707 -3483 0
1 707 -3453 0
1 3423 3424 0
1 -3423 677 0
1 3423 752 0
1 3423 -692 0
1 3423 797 0
1 3423 767 0
1 -3438 -737 0
1 3438 3423 0
1 -3438 -3439 0
1 -3438 752 0
1 -3438 -797 0
1 -3453 768 0
1 3453 738 0
1 -3453 723 0
1 3453 -662 0
1 -3453 -3454 0
1 -3468 707 0
1 -3468 -677 0
1 3468 753 0
1 3468 692 0
1 3468 3453 0
1 -3468 -662 0
1 -722 3363 0
1 722 -3438 0
1 -722 -3348 0
1 -722 -3288 0
1 737 3393 0
1 -737 -3303 0
1 737 -3408 0
1 -737 3348 0
1 -737 -3288 0
1 -752 -3393 0
1 752 3363 0
1 752 3304 0
1 752 -3273 0
1 -752 3408 0
1 -752 753 0
1 -752 3349 0
1 -752 -3288 0
1 767 -768 0
1 767 3334 0
1 767 3378 0
1 767 3349 0
1 767 -3288 0
1 -3363 752 0
1 -3363 -692 0
1 3378 3379 0
1 -3378 796 0
1 3393 -707 0
1 3393 -782 0
1 3393 722 0
1 3393 -857 0
1 -3408 -737 0
1 3408 -3407 0
1 3408 -3409 0
1 -3408 722 0
1 -781 3304 0
1 -781 -3213 0
1 -781 3378 0
1 781 3349 0
1 -796 3363 0
1 -796 -3304 0
1 796 -3258 0
1 -796 -795 0
1 -796 -797 0
1 811 -3304 0
1 811 -810 0
1 811 -3319 0
1 -826 -3289 0
1 826 3334 0
1 826 3274 0
1 -826 -3244 0
1 826 3378 0
1 -3304 -781 0
1 -3304 -796 0
1 -3319 -871 0
1 3319 -841 0
1 3319 -856 0
1 3334 -811 0
1 -3334 857 0
1 -3334 -767 0
1 3349 902 0
1 -3349 -3334 0
1 -3349 -752 0
1 -3349 -796 0
1 -3349 767 0
1 -841 3169 0
1 -841 3244 0
1 841 -3213 0
1 -841 -3183 0
1 -841 3154 0
1 -841 -856 0
1 -841 3198 0
1 856 841 0
1 856 3244 0
1 856 3213 0
1 856 -3183 0
1 -856 855 0
1 -856 3259 0
1 -856 3228 0
1 -871 -872 0
1 871 3304 0
1 871 -3274 0
1 -871 3244 0
1 -871 -3184 0
1 871 3319 0
1 871 -3259 0
1 886 -3304 0
1 -886 3259 0
1 -886 -3229 0
1 -886 3199 0
1 3244 946 0
1 3244 886 0
1 3244 -826 0
1 3244 3259 0
1 3259 -901 0
1 -3259 -811 0
1 3259 916 0
1 3259 -856 0
1 -3274 932 0
1 -3274 -3289 0
1 -3289 871 0
1 3289 -3274 0
1 -3289 -886 0
1 3289 -856 0
1 -901 3244 0
1 916 -3109 0
1 916 3214 0
1 916 3154 0
1 916 -917 0
1 -916 -3259 0
1 916 -3229 0
1 931 930 0
1 931 -932 0
1 931 -3184 0
1 -931 3259 0
1 -946 -3094 0
1 -3199 -931 0
1 -3199 871 0
1 3214 -901 0
1 3214 -946 0
1 -3214 886 0
1 -3229 916 0
1 3229 -3228 0
1 424 3842 0
1 424 -3811 0
1 -424 3751 0
1 424 423 0
1 -439 -3857 0
1 454 3887 0
1 -454 -3766 0
1 -454 3797 0
1 -469 3751 0
1 469 -3782 0
1 469 3887 0
1 -469 -468 0
1 -3842 -3841 0
1 3842 3843 0
1 3842 -424 0
1 -3842 529 0
1 3842 -469 0
1 3857 514 0
1 3857 484 0
1 -3857 -454 0
1 -3857 -499 0
1 3857 -3858 0
1 3857 469 0
1 -3887 469 0
1 3887 -439 0
1 -484 3842 0
1 -484 -3812 0
1 484 3782 0
1 -484 3692 0
1 -484 -3827 0
1 -484 -3797 0
1 484 -3707 0
1 499 3857 0
1 -499 -3736 0
1 -499 3707 0
1 514 -3842 0
1 514 -3782 0
1 514 3692 0
1 -514 3707 0
1 -529 514 0
1 529 -3842 0
1 -529 3752 0
1 -529 3722 0
1 -529 -528 0
1 -529 -3737 0
1 -3782 -589 0
1 -3782 -559 0
1 3797 -544 0
1 3797 484 0
1 3797 3782 0
1 -3797 -589 0
1 -3797 469 0
1 3797 -604 0
1 3797 -574 0
1 -3812 514 0
1 -3812 -3811 0
1 -3812 -604 0
1 3827 454 0
1 544 -3782 0
1 544 -3752 0
1 -544 -3632 0
1 -559 -3662 0
1 -574 -3722 0
1 -574 -3663 0
1 -574 3632 0
1 -574 3693 0
1 574 3797 0
1 -574 -3708 0
1 574 -573 0
1 574 3678 0
1 574 -3647 0
1 -589 -588 0
1 -589 3632 0
1 3722 3723 0
1 -3737 -679 0
1 -3737 -3736 0
1 -3737 -559 0
1 3737 633 0
1 3737 -3738 0
1 3737 603 0
1 -3752 -514 0
1 -3752 -559 0
1 3752 -634 0
1 3752 574 0
1 -3767 -3752 0
1 3767 619 0
1 -3767 664 0
1 -3767 634 0
1 603 3708 0
1 603 3587 0
1 603 -3722 0
1 603 3632 0
1 603 -3737 0
1 618 3572 0
1 -618 3647 0
1 633 -3633 0
1 633 3572 0
1 633 -3737 0
1 633 3708 0
1 -648 649 0
1 -648 -3722 0
1 -648 3737 0
1 -648 -3603 0
1 -648 -3708 0
1 -3663 -618 0
1 3663 -589 0
1 3663 663 0
1 3678 739 0
1 3678 708 0
1 -3678 -618 0
1 3678 3663 0
1 3678 -603 0
1 3678 3679 0
1 3693 -739 0
1 3693 -648 0
1 -3693 3692 0
1 -3693 -694 0
1 -3708 -679 0
1 -3708 -618 0
1 3708 3693 0
1 -3708 -633 0
1 -663 3557 0
1 663 -678 0
1 663 -3528 0
1 663 -3513 0
1 -678 3618 0
1 678 -677 0
1 -678 3557 0
1 -678 3633 0
1 -693 -3618 0
1 -693 -3528 0
1 693 3663 0
1 -693 3603 0
1 -693 -694 0
1 693 -3543 0
1 -693 -3513 0
1 693 3678 0
1 -708 -3558 0
1 -708 3633 0
1 708 3573 0
1 -708 3513 0
1 -708 3678 0
1 3603 -738 0
1 -3603 3618 0
1 -3603 -708 0
1 3603 -678 0
1 3603 -663 0
1 -3618 -3619 0
1 3618 -3603 0
1 3618 693 0
1 3633 -708 0
1 3633 648 0
1 -3633 783 0
1 3633 -3632 0
1 3633 -633 0
1 3648 754 0
1 3648 -724 0
1 3648 693 0
1 3648 798 0
1 -723 3498 0
1 -723 -3468 0
1 -723 -722 0
1 -723 3513 0
1 -738 737 0
1 -738 -3558 0
1 738 -3528 0
1 -738 3603 0
1 -738 -3573 0
1 738 -3543 0
1 738 3513 0
1 -738 -3453 0
1 753 3618 0
1 753 752 0
1 -753 -754 0
1 -753 -3603 0
1 753 3573 0
1 753 3484 0
1 -768 -769 0
1 768 -3588 0
1 768 753 0
1 -768 -3484 0
1 -768 3453 0
1 768 767 0
1 -3543 768 0
1 -3543 -753 0
1 3543 -797 0
1 3558 -812 0
1 -3558 3543 0
1 3573 -768 0
1 -3573 -708 0
1 -3573 -843 0
1 3573 -783 0
1 3573 753 0
1 -3573 -723 0
1 3573 -693 0
1 3573 -3574 0
1 3573 858 0
1 3573 -798 0
1 3588 3587 0
1 -3588 -843 0
1 -3588 3573 0
1 -3588 858 0
1 782 -3558 0
1 -782 -3499 0
1 782 -781 0
1 -782 -3438 0
1 -797 782 0
1 797 3438 0
1 -797 3484 0
1 -797 3514 0
1 797 -798 0
1 -812 3393 0
1 812 -3558 0
1 -812 3543 0
1 812 -3514 0
1 -827 3558 0
1 827 3499 0
1 -827 -3484 0
1 -3484 -842 0
1 3484 -3499 0
1 3484 812 0
1 -3484 -887 0
1 3484 -827 0
1 -3499 903 0
1 -3499 -782 0
1 -3499 753 0
1 3499 918 0
1 3499 887 0
1 -3499 -857 0
1 -3514 -903 0
1 3514 3529 0
1 3514 812 0
1 3514 -918 0
1 -3514 827 0
1 -3529 3528 0
1 3529 873 0
1 3529 812 0
1 3529 -782 0
1 3529 -753 0
1 -3529 -888 0
1 842 841 0
1 -842 3499 0
1 842 -3439 0
1 -842 3378 0
1 857 -3349 0
1 857 3484 0
1 872 -3394 0
1 872 3499 0
1 -872 -3439 0
1 872 -3409 0
1 -872 -3454 0
1 -887 -3364 0
1 887 -3469 0
1 887 -3379 0
1 3424 932 0
1 -3424 -872 0
1 -3424 -842 0
1 -3424 -857 0
1 3424 -3423 0
1 -3439 -887 0
1 3439 -857 0
1 -3454 903 0
1 -3454 -948 0
1 3454 827 0
1 -3469 933 0
1 -3469 903 0
1 3469 -872 0
1 3469 -887 0
1 -3469 3454 0
1 902 3364 0
1 902 -901 0
1 -902 -3274 0
1 -902 917 0
1 902 3349 0
1 -902 -3319 0
1 902 3289 0
1 917 902 0
1 -917 3349 0
1 932 -3424 0
1 932 -933 0
1 -932 -3409 0
1 -932 947 0
1 -947 3274 0
1 -947 3409 0
1 947 946 0
1 -947 -948 0
1 3364 -3363 0
1 -3364 -902 0
1 -3364 -872 0
1 -3364 -947 0
1 -3379 -872 0
1 -3379 -3378 0
1 3379 -887 0
1 -3394 3393 0
1 3394 -932 0
1 -3394 -917 0
1 -3409 3394 0
1 3409 -932 0
1 -3409 -872 0
1 3409 -947 0
1 -3409 -887 0
1 604 -3873 0
1 604 -3843 0
1 604 -3797 0
1 -604 -3767 0
1 -604 -603 0
1 -619 3843 0
1 -619 3827 0
1 619 604 0
1 -634 3873 0
1 634 -3843 0
1 -634 3828 0
1 649 -3843 0
1 -649 -3813 0
1 649 -3752 0
1 649 -3798 0
1 649 -3767 0
1 -3843 709 0
1 3843 649 0
1 3843 3858 0
1 -3843 -634 0
1 3843 -604 0
1 3858 -679 0
1 -3858 619 0
1 -3858 -3857 0
1 -3858 664 0
1 3858 634 0
1 -3873 634 0
1 3873 -604 0
1 -3888 619 0
1 -664 -3843 0
1 -664 679 0
1 664 3767 0
1 -664 3693 0
1 664 -3858 0
1 664 -3798 0
1 664 3708 0
1 679 678 0
1 679 3752 0
1 -679 -3858 0
1 -679 -3767 0
1 679 664 0
1 -694 3843 0
1 -694 -709 0
1 -694 -3693 0
1 -694 3858 0
1 694 -693 0
1 -694 3708 0
1 709 -3843 0
1 709 -3813 0
1 -709 3783 0
1 709 -3858 0
1 709 3738 0
1 -3783 769 0
1 3783 -754 0
1 -3783 -724 0
1 3783 -3798 0
1 -3798 709 0
1 -3798 679 0
1 3798 3783 0
1 -3798 -3797 0
1 3798 634 0
1 3813 3812 0
1 -3813 649 0
1 -3813 -694 0
1 -3813 799 0
1 3828 709 0
1 3828 3827 0
1 -3828 -799 0
1 -724 3753 0
1 724 3693 0
1 -724 -3798 0
1 -724 -3738 0
1 724 -3708 0
1 -739 3678 0
1 754 769 0
1 -754 3783 0
1 -754 -3798 0
1 754 -3709 0
1 -769 -3648 0
1 -769 -3783 0
1 769 3753 0
1 769 3723 0
1 -769 -3664 0
1 -769 754 0
1 -769 -3768 0
1 769 -3709 0
1 -769 -3679 0
1 3723 754 0
1 -3723 724 0
1 3723 859 0
1 -3723 -828 0
1 3723 798 0
1 -3738 -739 0
1 -3738 -709 0
1 3738 783 0
1 3738 -724 0
1 3738 -694 0
1 3738 3737 0
1 -3738 859 0
1 -3738 -798 0
1 -3753 -3754 0
1 -3753 814 0
1 -3753 829 0
1 -3768 724 0
1 -3768 3767 0
1 3768 -859 0
1 783 3633 0
1 -783 3709 0
1 -783 -3679 0
1 -798 3618 0
1 798 3709 0
1 -798 -3723 0
1 -798 -3664 0
1 -798 3573 0
1 -798 -799 0
1 813 3649 0
1 813 -3634 0
1 813 3573 0
1 828 -3694 0
1 828 3573 0
1 -828 829 0
1 -828 -3679 0
1 -3664 -754 0
1 3664 858 0
1 -3679 -904 0
1 3679 873 0
1 -3694 874 0
1 3694 -844 0
1 3694 -813 0
1 3694 -754 0
1 3694 -919 0
1 3694 -859 0
1 -3694 -3709 0
1 -3709 -904 0
1 -3709 -828 0
1 843 -3649 0
1 843 -3619 0
1 843 3529 0
1 -843 3664 0
1 843 -3514 0
1 843 -858 0
1 -858 -3649 0
1 -858 -3558 0
1 858 -3529 0
1 -858 843 0
1 -858 -3664 0
1 -858 -3573 0
1 858 3514 0
1 -858 859 0
1 873 3529 0
1 -873 3664 0
1 -873 3604 0
1 -873 -3574 0
1 -888 3649 0
1 -888 3559 0
1 888 873 0
1 -888 -3634 0
1 -888 -3574 0
1 -888 -3544 0
1 -3604 -948 0
1 3604 888 0
1 -3619 828 0
1 -3634 -934 0
1 -3634 813 0
1 3634 949 0
1 3634 858 0
1 3634 828 0
1 3649 3648 0
1 3649 904 0
1 3649 949 0
1 3649 -919 0
1 -3649 -888 0
1 -903 902 0
1 -903 3559 0
1 903 -3469 0
1 903 -3604 0
1 903 3574 0
1 -903 3544 0
1 918 -903 0
1 -918 3499 0
1 918 3469 0
1 -918 917 0
1 -918 -919 0
1 933 -932 0
1 -933 3574 0
1 933 3544 0
1 -933 3454 0
1 -948 933 0
1 -948 -3559 0
1 948 947 0
1 -948 -3574 0
1 -3544 3543 0
1 3544 -888 0
1 3559 3544 0
1 3559 -873 0
1 -3574 933 0
1 3574 -3573 0
1 3574 -888 0
1 784 -3783 0
1 784 -783 0
1 784 -3768 0
1 -799 -798 0
1 814 3784 0
1 814 3859 0
1 814 3829 0
1 814 3768 0
1 -814 829 0
1 3844 -784 0
1 -3859 3858 0
1 3859 829 0
1 3874 -814 0
1 3889 -3874 0
1 -3889 784 0
1 -844 -3784 0
1 -844 3753 0
1 844 -3694 0
1 -844 -3799 0
1 844 -3738 0
1 -859 3844 0
1 859 -3723 0
1 -859 844 0
1 -859 -3738 0
1 -859 -3768 0
1 -859 -3709 0
1 -874 3784 0
1 -874 873 0
1 874 3859 0
1 874 -889 0
1 874 3709 0
1 889 -3844 0
1 -889 874 0
1 889 -3769 0
1 -3784 -934 0
1 -3784 874 0
1 3784 814 0
1 3784 889 0
1 3799 934 0
1 -3799 -3784 0
1 -3799 949 0
1 -3799 3798 0
1 3814 889 0
1 3829 -829 0
1 904 -3649 0
1 904 -3754 0
1 -904 3724 0
1 904 -3664 0
1 904 3769 0
1 919 3649 0
1 919 3754 0
1 919 3694 0
1 919 3709 0
1 934 -3724 0
1 934 -3799 0
1 -934 -3769 0
1 949 3784 0
1 949 3634 0
1 949 3739 0
1 3724 -3723 0
1 3739 874 0
1 3754 -934 0
1 -3754 904 0
1 3754 3753 0
1 3769 934 0
1 -3769 -919 0
1 3769 -889 0
